50 1 3
238 941 374 993 80 96 125 225 291 667 886 746 657 726 196 899 195 88 433 723 292 80 862 95 877 826 377 252 797 471 314 34 412 687 26 491 783 150 715 73 817 601 819 473 326 14 371 521 101 804 
244 393 884 105 487 761 930 864 12 726 335 326 760 746 13 785 237 795 935 952 868 752 552 686 224 878 700 595 398 801 399 641 193 283 745 680 44 675 544 56 401 878 381 160 624 394 945 860 189 879 
812 56 630 363 742 854 240 441 449 638 242 848 278 435 130 23 114 173 697 657 228 98 535 609 257 158 3 201 18 191 80 829 247 709 191 988 563 431 429 11 69 671 859 346 105 988 368 219 161 65 
8750 3890 1630 4100 9980 4200 5670 10000 6210 5840 1910 7000 4120 4370 4090 6030 4250 9720 340 8540 9830 1020 5240 8410 4480 6290 8290 8160 8470 9900 8810 7220 3780 430 1310 3760 4620 6970 3760 820 2810 5660 7820 6930 30 1910 2950 4280 1620 3290 
129750
